
  32    4
  10   10   10   10

   0   0   0   0   0   1 2 
   2   1   1   1   0   2 7 3 
   8   6   1   3   0   1 4 
   9   3   0   3   1   3 13 10 5 
   6   6   1   0   4   1 6 
  10   4   7   0   5   2 22 8 
   1   5   6   7   0   2 22 8 
   9   4   5   0   6   1 9 
   1   4   5   5   0   2 17 11 
   4   3   3   2   0   3 22 20 14 
   5   0   4   2   4   1 12 
   5   5   0   7   5   2 20 14 
   5   0   3   4   8   2 20 16 
   9   2   0   3   2   1 15 
   4   5   7   0   5   1 16 
   9   2   3   5   0   2 27 18 
   9   0   4   5   3   2 27 18 
   4   5   5   6   0   1 19 
   8   0   3   4   1   2 31 21 
   1   2   3   4   0   2 31 23 
  10   2   2   5   0   1 23 
   8   3   3   4   0   1 23 
   4   0   1   8   3   2 29 24 
   6   3   5   0   5   1 25 
   1   6   3   3   0   1 26 
   6   5   7   4   0   1 28 
   9   3   4   0   3   1 28 
   6   0   5   4   5   1 30 
   4   5   0   1   4   1 30 
   2   4   6   3   0   1 32
   3   8   7   3   0   1 32
   0   0   0   0   0   0 
